\* Problem: Unknown *\

Maximize
 obj: + xp_0_0 + xp_0_1 + xp_1_0 + xp_2_0 + xp_2_1 + xp_3_0 + xp_3_1
 + xp_3_2 + xp_4_0 + xp_5_0 + xp_6_0 + xp_6_1 + xp_7_0 + xp_8_0 + xp_9_0
 + xp_10_0 + xp_10_1 + xp_10_2 + xp_11_0 + xp_12_0 + xp_12_1 + xp_13_0
 + xp_14_0 + xp_15_0 + xp_15_1 + xp_16_0 + xp_17_0 + xp_17_1 + xp_18_0
 + xp_18_1 + xp_19_0 + xp_20_0 + xp_21_0 + xp_21_1 + xp_21_2 + xp_21_3
 + xp_22_0 + xp_22_1 + xp_22_2 + xp_23_0 + xp_24_0 + xp_24_1 + xp_24_2
 + xp_25_0 + xp_26_0 + xp_27_0 + xp_28_0 + xp_28_1 + xp_29_0 + xp_30_0
 + xp_31_0 + xp_31_1 + xp_32_0 + xp_33_0 + xp_34_0 + xp_35_0 + xp_36_0
 + xp_37_0 + xp_38_0 + xp_38_1 + xp_39_0 + xp_40_0 + xp_40_1 + xp_41_0
 + xp_42_0 + xp_42_1 + xp_43_0 + xp_44_0 + xp_44_1 + xp_45_0 + xp_46_0
 + xp_47_0 + xp_48_0 + xp_48_1 + xp_49_0 + xp_50_0 + xp_51_0 + xp_52_0
 + xp_52_1 + xp_53_0 + xp_54_0 + xp_55_0 + xp_56_0 + xp_57_0 + xp_58_0
 + xp_59_0 + xp_60_0 + xp_60_1 + xp_61_0 + xp_62_0 + xp_63_0 + xp_63_1
 + xp_64_0 + xp_65_0

Subject To
 r_1: + xp_53_0 + xp_51_0 + xp_42_1 + xp_40_0 + xp_35_0 + xp_33_0 <= 155
 r_2: + xp_24_2 + xp_15_1 <= 155
 r_3: + xp_56_0 + xp_21_0 + xp_12_0 <= 155
 r_4: + xp_65_0 + xp_50_0 + xp_45_0 + xp_24_1 + xp_24_0 + xp_21_3
 + xp_15_0 + xp_10_1 + xp_10_0 + xp_5_0 + xp_2_1 <= 141.172011661808
 r_5: + xp_52_1 + xp_38_1 + xp_31_1 + xp_17_0 + xp_14_0
 <= 141.172011661808
 r_6: + xp_22_2 + xp_22_1 + xp_22_0 + xp_21_2 + xp_13_0 + xp_12_1
 + xp_10_2 + xp_3_1 + xp_3_0 + xp_2_0 <= 149.23665791776
 r_7: + xp_60_1 + xp_48_1 + xp_46_0 + xp_42_0 + xp_40_1 + xp_0_0
 <= 152.393669634026
 r_8: 0 xp_0_0 <= 149.23665791776
 r_9: + xp_64_0 + xp_63_1 + xp_25_0 + xp_24_2 + xp_21_0 + xp_6_0 <= 155
 r_10: + xp_63_0 <= 150.204731574158
 r_11: + xp_60_0 + xp_38_0 + xp_31_0 <= 155
 r_12: + xp_62_0 + xp_61_0 + xp_60_1 + xp_21_1 + xp_3_2
 <= 149.23665791776
 r_13: + xp_64_0 + xp_59_0 + xp_56_0 + xp_29_0 + xp_24_2 + xp_21_0
 + xp_20_0 + xp_15_1 + xp_12_0 <= 155
 r_14: + xp_57_0 + xp_53_0 + xp_48_1 + xp_42_1 + xp_35_0 + xp_18_0
 <= 155
 r_15: + xp_63_1 + xp_58_0 <= 152.393669634026
 r_16: + xp_65_0 + xp_55_0 + xp_53_0 + xp_51_0 + xp_50_0 + xp_44_1
 + xp_10_1 + xp_10_0 <= 155
 r_17: + xp_54_0 + xp_52_1 + xp_36_0 + xp_31_1 <= 141.172011661808
 r_18: + xp_52_0 + xp_21_3 + xp_2_1 <= 155
 r_19: + xp_60_0 + xp_48_0 <= 149.23665791776
 r_20: + xp_50_0 + xp_49_0 + xp_48_1 + xp_46_0 + xp_45_0 + xp_22_1
 + xp_10_2 + xp_10_1 + xp_3_1 <= 141.172011661808
 r_21: + xp_52_1 + xp_47_0 + xp_26_0 + xp_21_1 + xp_17_1 + xp_17_0
 + xp_7_0 + xp_3_2 <= 155
 r_22: + xp_61_0 + xp_60_1 + xp_43_0 + xp_42_0 + xp_40_1 + xp_38_1
 <= 149.23665791776
 r_23: + xp_56_0 + xp_52_0 + xp_41_0 + xp_38_0 + xp_34_0 + xp_31_0
 <= 149.23665791776
 r_24: + xp_62_0 + xp_44_1 + xp_44_0 + xp_42_1 + xp_40_0 + xp_39_0
 + xp_21_2 + xp_21_1 + xp_12_1 + xp_10_2 + xp_2_0 <= 149.23665791776
 r_25: + xp_62_0 + xp_44_0 + xp_42_1 + xp_40_0 + xp_37_0 + xp_35_0
 + xp_33_0 + xp_10_2 <= 155
 r_26: + xp_44_1 + xp_39_0 + xp_36_0 + xp_32_0 + xp_31_1 <= 155
 r_27: + xp_56_0 + xp_52_0 + xp_34_0 + xp_31_0 + xp_30_0
 <= 149.23665791776
 r_28: + xp_60_1 + xp_60_0 + xp_48_0 + xp_42_0 + xp_27_0 + xp_25_0
 + xp_24_2 + xp_21_0 + xp_18_1 + xp_8_0 + xp_6_0 <= 150.204731574158
 r_29: + xp_29_0 + xp_28_0 + xp_24_1 + xp_22_0 + xp_6_1 + xp_0_1
 <= 152.393669634026
 r_30: + xp_63_0 + xp_28_1 + xp_26_0 + xp_24_0 + xp_23_0 + xp_22_2
 + xp_22_1 + xp_21_3 + xp_21_2 + xp_21_1 + xp_17_1 <= 149.23665791776
 r_31: + xp_63_1 + xp_58_0 + xp_28_0 + xp_24_1 + xp_22_0 + xp_19_0
 + xp_17_0 + xp_15_0 + xp_14_0 + xp_13_0 + xp_12_1 <= 152.393669634026
 r_32: + xp_48_1 + xp_46_0 + xp_40_1 + xp_29_0 + xp_20_0 + xp_18_0
 + xp_16_0 + xp_15_1 + xp_12_0 + xp_6_1 <= 152.393669634026
 r_33: + xp_60_1 + xp_42_0 + xp_18_1 + xp_17_1 + xp_11_0
 <= 152.393669634026
 r_34: + xp_26_0 + xp_23_0 + xp_22_1 + xp_21_1 + xp_17_1 + xp_10_2
 + xp_10_1 + xp_7_0 + xp_4_0 + xp_3_2 + xp_3_1 <= 149.23665791776
 r_35: + xp_60_0 + xp_48_0 + xp_8_0 + xp_6_1 + xp_6_0 + xp_1_0 + xp_0_1
 <= 149.23665791776
 r_36: + xp_63_0 + xp_28_1 + xp_24_0 + xp_22_2 + xp_21_3 + xp_21_2
 + xp_10_0 + xp_9_0 + xp_5_0 + xp_3_0 + xp_2_1 + xp_2_0 + xp_0_0
 <= 149.23665791776

Bounds
 0 <= xp_0_0 <= 13.7573964497041
 0 <= xp_0_1 <= 13.7573964497041
 0 <= xp_1_0 <= 22.2940373236231
 0 <= xp_2_0 <= 12.2758306781975
 0 <= xp_2_1 <= 12.2758306781975
 0 <= xp_3_0 <= 7.1256258534365
 0 <= xp_3_1 <= 3.56281292671825
 0 <= xp_3_2 <= 3.56281292671825
 0 <= xp_4_0 <= 27.938097405553
 0 <= xp_5_0 <= 22.2940373236231
 0 <= xp_6_0 <= 6.42011834319527
 0 <= xp_6_1 <= 19.2603550295858
 0 <= xp_7_0 <= 21.7296313154301
 0 <= xp_8_0 <= 24.6927628584433
 0 <= xp_9_0 <= 17.2143832498862
 0 <= xp_10_0 <= 8.04278561675011
 0 <= xp_10_1 <= 4.02139280837506
 0 <= xp_10_2 <= 4.02139280837506
 0 <= xp_11_0 <= 25.2571688666363
 0 <= xp_12_0 <= 12.3816568047337
 0 <= xp_12_1 <= 4.12721893491124
 0 <= xp_13_0 <= 14.815657715066
 0 <= xp_14_0 <= 22.4351388256714
 0 <= xp_15_0 <= 13.9690487027765
 0 <= xp_15_1 <= 13.9690487027765
 0 <= xp_16_0 <= 26.6681838871188
 0 <= xp_17_0 <= 11.7114246700046
 0 <= xp_17_1 <= 11.7114246700046
 0 <= xp_18_0 <= 5.00910332271279
 0 <= xp_18_1 <= 15.0273099681384
 0 <= xp_19_0 <= 19.3309057806099
 0 <= xp_20_0 <= 22.9995448338644
 0 <= xp_21_0 <= 4.62107419208011
 0 <= xp_21_1 <= 4.62107419208011
 0 <= xp_21_2 <= 4.62107419208011
 0 <= xp_21_3 <= 4.62107419208011
 0 <= xp_22_0 <= 11.2175694128357
 0 <= xp_22_1 <= 5.60878470641784
 0 <= xp_22_2 <= 5.60878470641784
 0 <= xp_23_0 <= 23.1406463359126
 0 <= xp_24_0 <= 4.51524806554392
 0 <= xp_24_1 <= 4.51524806554392
 0 <= xp_24_2 <= 9.03049613108785
 0 <= xp_25_0 <= 27.5147928994083
 0 <= xp_26_0 <= 18.3431952662722
 0 <= xp_27_0 <= 14.815657715066
 0 <= xp_28_0 <= 12.2052799271734
 0 <= xp_28_1 <= 12.2052799271734
 0 <= xp_29_0 <= 22.1529358215749
 0 <= xp_30_0 <= 27.37369139736
 0 <= xp_31_0 <= 4.40942193900774
 0 <= xp_31_1 <= 13.2282658170232
 0 <= xp_32_0 <= 15.5211652253072
 0 <= xp_33_0 <= 18.6253982703687
 0 <= xp_34_0 <= 22.4351388256714
 0 <= xp_35_0 <= 15.380063723259
 0 <= xp_36_0 <= 17.7787892580792
 0 <= xp_37_0 <= 14.1101502048248
 0 <= xp_38_0 <= 13.122439690487
 0 <= xp_38_1 <= 4.37414656349568
 0 <= xp_39_0 <= 14.9567592171142
 0 <= xp_40_0 <= 14.3923532089213
 0 <= xp_40_1 <= 4.79745106964042
 0 <= xp_41_0 <= 20.3186162949477
 0 <= xp_42_0 <= 11.8525261720528
 0 <= xp_42_1 <= 11.8525261720528
 0 <= xp_43_0 <= 16.7910787437415
 0 <= xp_44_0 <= 13.4399180700956
 0 <= xp_44_1 <= 4.47997269003186
 0 <= xp_45_0 <= 14.815657715066
 0 <= xp_46_0 <= 20.7419208010924
 0 <= xp_47_0 <= 19.7542102867547
 0 <= xp_48_0 <= 20.9535730541648
 0 <= xp_48_1 <= 6.98452435138826
 0 <= xp_49_0 <= 14.6745562130178
 0 <= xp_50_0 <= 15.944469731452
 0 <= xp_51_0 <= 23.8461538461538
 0 <= xp_52_0 <= 19.7894856622667
 0 <= xp_52_1 <= 6.59649522075558
 0 <= xp_53_0 <= 27.6558944014565
 0 <= xp_54_0 <= 27.2325898953118
 0 <= xp_55_0 <= 21.3063268092854
 0 <= xp_56_0 <= 14.9567592171142
 0 <= xp_57_0 <= 17.6376877560309
 0 <= xp_58_0 <= 27.37369139736
 0 <= xp_59_0 <= 27.37369139736
 0 <= xp_60_0 <= 8.67774237596723
 0 <= xp_60_1 <= 8.67774237596723
 0 <= xp_61_0 <= 25.5393718707328
 0 <= xp_62_0 <= 27.2325898953118
 0 <= xp_63_0 <= 19.1545289030496
 0 <= xp_63_1 <= 6.3848429676832
 0 <= xp_64_0 <= 27.5147928994083
 0 <= xp_65_0 <= 19.8953117888029

End
